\ Model knapsack_100_10_1
\ LP format - for model browsing. Use MPS format to capture full model detail.
\ Signature: 0x3c1f4db002a9e00d
Minimize
  91.92 x[0] + 71.76 x[1] + 108.61 x[2] + 85.33 x[3] + 86.7 x[4]
   + 143.48 x[5] + 17.72 x[6] + 85.41 x[7] + 113.29 x[8] + 189.38 x[9]
   + 130.14 x[10] + 112.65 x[11] + 130.93 x[12] + 86.83 x[13] + 30.65 x[14]
   + 20.98 x[15] + 37.32 x[16] + 83.24 x[17] + 114.37 x[18] + 110.44 x[19]
   + 42.49 x[20] + 158.71 x[21] + 71.59 x[22] + 181.33 x[23] + 107.44 x[24]
   + 75.48 x[25] + 30.3 x[26] + 60.06 x[27] + 156.83 x[28] + 75.88 x[29]
   + 68.58 x[30] + 84.47 x[31] + 23.41 x[32] + 127.9 x[33] + 122.38 x[34]
   + 98.55 x[35] + 73.82 x[36] + 140.61 x[37] + 26.24 x[38] + 26.6 x[39]
   + 130.46 x[40] + 156.41 x[41] + 106.06 x[42] + 141.7 x[43] + 75.15 x[44]
   + 60.87 x[45] + 138.65 x[46] + 13.92 x[47] + 35.23 x[48] + 153.34 x[49]
   + 15.12 x[50] + 99.19 x[51] + 135.21 x[52] + 31.3 x[53] + 140.03 x[54]
   + 42.16 x[55] + 110.02 x[56] + 18.19 x[57] + 195.04 x[58] + 123.91 x[59]
   + 127 x[60] + 54.01 x[61] + 79.08 x[62] + 77.34 x[63] + 45.76 x[64]
   + 142.76 x[65] + 137.11 x[66] + 29.58 x[67] + 115.43 x[68] + 18.75 x[69]
   + 139.49 x[70] + 49.66 x[71] + 145.44 x[72] + 153.59 x[73] + 42.4 x[74]
   + 156.33 x[75] + 141.86 x[76] + 75.88 x[77] + 79.71 x[78] + 21.05 x[79]
   + 98.52 x[80] + 129.93 x[81] + 59.54 x[82] + 97.88 x[83] + 57.99 x[84]
   + 43.21 x[85] + 40.4 x[86] + 123.79 x[87] + 71.4 x[88] + 79.13 x[89]
   + 88.05 x[90] + 50.65 x[91] + 93.63 x[92] + 114.51 x[93] + 55.57 x[94]
   + 20.2 x[95] + 77.2 x[96] + 114.62 x[97] + 70.71 x[98] + 73.87 x[99]
   - 761 y[0] - 635 y[1] - 565 y[2] - 572 y[3] - 507 y[4] - 909 y[5]
   - 124 y[6] - 697 y[7] - 949 y[8] - 975 y[9] - 1027 y[10] - 670 y[11]
   - 742 y[12] - 695 y[13] - 245 y[14] - 105 y[15] - 366 y[16] - 708 y[17]
   - 595 y[18] - 616 y[19] - 269 y[20] - 860 y[21] - 492 y[22] - 1016 y[23]
   - 917 y[24] - 416 y[25] - 293 y[26] - 415 y[27] - 958 y[28] - 692 y[29]
   - 382 y[30] - 641 y[31] - 118 y[32] - 899 y[33] - 1025 y[34] - 679 y[35]
   - 554 y[36] - 1032 y[37] - 199 y[38] - 207 y[39] - 742 y[40]
   - 1055 y[41] - 569 y[42] - 852 y[43] - 485 y[44] - 369 y[45] - 960 y[46]
   - 133 y[47] - 286 y[48] - 782 y[49] - 121 y[50] - 516 y[51] - 739 y[52]
   - 197 y[53] - 769 y[54] - 253 y[55] - 1039 y[56] - 159 y[57]
   - 1024 y[58] - 774 y[59] - 779 y[60] - 378 y[61] - 709 y[62] - 453 y[63]
   - 405 y[64] - 777 y[65] - 710 y[66] - 180 y[67] - 757 y[68] - 121 y[69]
   - 962 y[70] - 386 y[71] - 733 y[72] - 1094 y[73] - 230 y[74]
   - 1076 y[75] - 949 y[76] - 476 y[77] - 536 y[78] - 137 y[79] - 952 y[80]
   - 1033 y[81] - 491 y[82] - 667 y[83] - 343 y[84] - 423 y[85] - 207 y[86]
   - 888 y[87] - 400 y[88] - 472 y[89] - 604 y[90] - 392 y[91] - 483 y[92]
   - 706 y[93] - 427 y[94] - 114 y[95] - 400 y[96] - 850 y[97] - 705 y[98]
   - 647 y[99]
Subject To
 primal_upper: 661 y[0] + 535 y[1] + 465 y[2] + 472 y[3] + 407 y[4]
   + 809 y[5] + 24 y[6] + 597 y[7] + 849 y[8] + 875 y[9] + 927 y[10]
   + 570 y[11] + 642 y[12] + 595 y[13] + 145 y[14] + 5 y[15] + 266 y[16]
   + 608 y[17] + 495 y[18] + 516 y[19] + 169 y[20] + 760 y[21] + 392 y[22]
   + 916 y[23] + 817 y[24] + 316 y[25] + 193 y[26] + 315 y[27] + 858 y[28]
   + 592 y[29] + 282 y[30] + 541 y[31] + 18 y[32] + 799 y[33] + 925 y[34]
   + 579 y[35] + 454 y[36] + 932 y[37] + 99 y[38] + 107 y[39] + 642 y[40]
   + 955 y[41] + 469 y[42] + 752 y[43] + 385 y[44] + 269 y[45] + 860 y[46]
   + 33 y[47] + 186 y[48] + 682 y[49] + 21 y[50] + 416 y[51] + 639 y[52]
   + 97 y[53] + 669 y[54] + 153 y[55] + 939 y[56] + 59 y[57] + 924 y[58]
   + 674 y[59] + 679 y[60] + 278 y[61] + 609 y[62] + 353 y[63] + 305 y[64]
   + 677 y[65] + 610 y[66] + 80 y[67] + 657 y[68] + 21 y[69] + 862 y[70]
   + 286 y[71] + 633 y[72] + 994 y[73] + 130 y[74] + 976 y[75] + 849 y[76]
   + 376 y[77] + 436 y[78] + 37 y[79] + 852 y[80] + 933 y[81] + 391 y[82]
   + 567 y[83] + 243 y[84] + 323 y[85] + 107 y[86] + 788 y[87] + 300 y[88]
   + 372 y[89] + 504 y[90] + 292 y[91] + 383 y[92] + 606 y[93] + 327 y[94]
   + 14 y[95] + 300 y[96] + 750 y[97] + 605 y[98] + 547 y[99] + 66 z[0]
   + 54 z[1] + 46 z[2] + 47 z[3] + 41 z[4] + 81 z[5] + 2 z[6] + 60 z[7]
   + 85 z[8] + 88 z[9] + 93 z[10] + 57 z[11] + 64 z[12] + 60 z[13]
   + 14 z[14] + 27 z[16] + 61 z[17] + 50 z[18] + 52 z[19] + 17 z[20]
   + 76 z[21] + 39 z[22] + 92 z[23] + 82 z[24] + 32 z[25] + 19 z[26]
   + 32 z[27] + 86 z[28] + 59 z[29] + 28 z[30] + 54 z[31] + 2 z[32]
   + 80 z[33] + 92 z[34] + 58 z[35] + 45 z[36] + 93 z[37] + 10 z[38]
   + 11 z[39] + 64 z[40] + 96 z[41] + 47 z[42] + 75 z[43] + 38 z[44]
   + 27 z[45] + 86 z[46] + 3 z[47] + 19 z[48] + 68 z[49] + 2 z[50]
   + 42 z[51] + 64 z[52] + 10 z[53] + 67 z[54] + 15 z[55] + 94 z[56]
   + 6 z[57] + 92 z[58] + 67 z[59] + 68 z[60] + 28 z[61] + 61 z[62]
   + 35 z[63] + 30 z[64] + 68 z[65] + 61 z[66] + 8 z[67] + 66 z[68]
   + 2 z[69] + 86 z[70] + 29 z[71] + 63 z[72] + 99 z[73] + 13 z[74]
   + 98 z[75] + 85 z[76] + 38 z[77] + 44 z[78] + 4 z[79] + 85 z[80]
   + 93 z[81] + 39 z[82] + 57 z[83] + 24 z[84] + 32 z[85] + 11 z[86]
   + 79 z[87] + 30 z[88] + 37 z[89] + 50 z[90] + 29 z[91] + 38 z[92]
   + 61 z[93] + 33 z[94] + z[95] + 30 z[96] + 75 z[97] + 60 z[98]
   + 55 z[99] <= 24701
 primal_lower0: 374 u[0] + 532 u[1] + 890 u[2] + 37 u[3] + 688 u[4]
   + 910 u[5] + 737 u[6] + 234 u[7] + 226 u[8] + 400 u[9] + 32 u[10]
   + 711 u[11] + 11 u[12] + 280 u[13] + 410 u[14] + 730 u[15] + 963 u[16]
   + 229 u[17] + 504 u[18] + 193 u[19] + 386 u[20] + 229 u[21] + 305 u[22]
   + 777 u[23] + 730 u[24] + 393 u[25] + 450 u[26] + 424 u[27] + 51 u[28]
   + 5 u[29] + 91 u[30] + 626 u[31] + 835 u[32] + 332 u[33] + 150 u[34]
   + 512 u[35] + 799 u[36] + 329 u[37] + 612 u[38] + 912 u[39] + 715 u[40]
   + 984 u[41] + 390 u[42] + 741 u[43] + 338 u[44] + 842 u[45] + 997 u[46]
   + 222 u[47] + 323 u[48] + 583 u[49] + 374 u[50] + 133 u[51] + 464 u[52]
   + 302 u[53] + 942 u[54] + 6 u[55] + 28 u[56] + 904 u[57] + 453 u[58]
   + 71 u[59] + 520 u[60] + 995 u[61] + 802 u[62] + 262 u[63] + 594 u[64]
   + 914 u[65] + 859 u[66] + 333 u[67] + 618 u[68] + 930 u[69] + 223 u[70]
   + 19 u[71] + 226 u[72] + 231 u[73] + 843 u[74] + 157 u[75] + 738 u[76]
   + 997 u[77] + 21 u[78] + 706 u[79] + 173 u[80] + 730 u[81] + 720 u[82]
   + 276 u[83] + 20 u[84] + 600 u[85] + 732 u[86] + 817 u[87] + 765 u[88]
   + 193 u[89] + 377 u[90] + 497 u[91] + 712 u[92] + 635 u[93] + 552 u[94]
   + 763 u[95] + 229 u[96] + 963 u[97] + 374 u[98] + 128 u[99] <= 997
 primal_lower1: 110 u[0] + 228 u[1] + 434 u[2] + 349 u[3] + 72 u[4]
   + 302 u[5] + 97 u[6] + 482 u[7] + 50 u[8] + 256 u[9] + 440 u[10]
   + 591 u[11] + 763 u[12] + 1000 u[13] + 954 u[14] + 82 u[15] + 259 u[16]
   + 549 u[17] + 384 u[18] + 913 u[19] + 434 u[20] + 141 u[21] + 609 u[22]
   + 689 u[23] + 194 u[24] + 449 u[25] + 482 u[26] + 672 u[27] + 699 u[28]
   + 445 u[29] + 123 u[30] + 922 u[31] + 363 u[32] + 964 u[33] + 70 u[34]
   + 416 u[35] + 247 u[36] + 169 u[37] + 164 u[38] + 752 u[39] + 651 u[40]
   + 296 u[41] + 270 u[42] + 333 u[43] + 962 u[44] + 258 u[45] + 925 u[46]
   + 446 u[47] + 587 u[48] + 159 u[49] + 198 u[50] + 933 u[51] + 192 u[52]
   + 310 u[53] + 494 u[54] + 742 u[55] + 100 u[56] + 800 u[57] + 645 u[58]
   + 223 u[59] + 200 u[60] + 771 u[61] + 138 u[62] + 806 u[63] + 66 u[64]
   + 90 u[65] + 355 u[66] + 469 u[67] + 450 u[68] + 778 u[69] + 751 u[70]
   + 627 u[71] + 866 u[72] + 655 u[73] + 811 u[74] + 645 u[75] + 234 u[76]
   + 725 u[77] + 69 u[78] + 634 u[79] + 141 u[80] + 98 u[81] + 712 u[82]
   + 972 u[83] + 12 u[84] + 416 u[85] + 588 u[86] + 913 u[87] + 77 u[88]
   + 193 u[89] + 969 u[90] + 177 u[91] + 192 u[92] + 323 u[93] + 480 u[94]
   + 659 u[95] + 109 u[96] + 811 u[97] + 470 u[98] + 432 u[99] <= 1000
 primal_lower2: 186 u[0] + 568 u[1] + 318 u[2] + 633 u[3] + 532 u[4]
   + 386 u[5] + 645 u[6] + 254 u[7] + 838 u[8] + 252 u[9] + 388 u[10]
   + 75 u[11] + 87 u[12] + 828 u[13] + 742 u[14] + 102 u[15] + 391 u[16]
   + 977 u[17] + 484 u[18] + 125 u[19] + 814 u[20] + 25 u[21] + 789 u[22]
   + 93 u[23] + 414 u[24] + 645 u[25] + 902 u[26] + 20 u[27] + 775 u[28]
   + 177 u[29] + 447 u[30] + 630 u[31] + 903 u[32] + 888 u[33] + 386 u[34]
   + 484 u[35] + 411 u[36] + 629 u[37] + 96 u[38] + 596 u[39] + 503 u[40]
   + 580 u[41] + 946 u[42] + 809 u[43] + 934 u[44] + 118 u[45] + 481 u[46]
   + 442 u[47] + 935 u[48] + 579 u[49] + 82 u[50] + 849 u[51] + 548 u[52]
   + 858 u[53] + 522 u[54] + 722 u[55] + 640 u[56] + 436 u[57] + 201 u[58]
   + 851 u[59] + 484 u[60] + 583 u[61] + 102 u[62] + 922 u[63] + 198 u[64]
   + 590 u[65] + 495 u[66] + 137 u[67] + 150 u[68] + 822 u[69] + 99 u[70]
   + 927 u[71] + 990 u[72] + 43 u[73] + 815 u[74] + 353 u[75] + 662 u[76]
   + 465 u[77] + 929 u[78] + 478 u[79] + 721 u[80] + 790 u[81] + 780 u[82]
   + 696 u[83] + 464 u[84] + 60 u[85] + 584 u[86] + 941 u[87] + 169 u[88]
   + 405 u[89] + 829 u[90] + 173 u[91] + 564 u[92] + 807 u[93] + 324 u[94]
   + 911 u[95] + 593 u[96] + 87 u[97] + 594 u[98] + 900 u[99] <= 990
 primal_lower3: 701 u[0] + 854 u[1] + 422 u[2] + 770 u[3] + 960 u[4]
   + 304 u[5] + 829 u[6] + 608 u[7] + 890 u[8] + 537 u[9] + 859 u[10]
   + 325 u[11] + 451 u[12] + 169 u[13] + 317 u[14] + 823 u[15] + 195 u[16]
   + 926 u[17] + 188 u[18] + 974 u[19] + 825 u[20] + 207 u[21] + 29 u[22]
   + 823 u[23] + 922 u[24] + 299 u[25] + 462 u[26] + 902 u[27] + 458 u[28]
   + 503 u[29] + 78 u[30] + 144 u[31] + 131 u[32] + 62 u[33] + 282 u[34]
   + 958 u[35] + 679 u[36] + 570 u[37] + 176 u[38] + 165 u[39] + 259 u[40]
   + 961 u[41] + 769 u[42] + 395 u[43] + 802 u[44] + 852 u[45] + 304 u[46]
   + 828 u[47] + 106 u[48] + 697 u[49] + 506 u[50] + 986 u[51] + 920 u[52]
   + 144 u[53] + 921 u[54] + 75 u[55] + 163 u[56] + 546 u[57] + 25 u[58]
   + 20 u[59] + 559 u[60] + 197 u[61] + 445 u[62] + 708 u[63] + 873 u[64]
   + 204 u[65] + 719 u[66] + 547 u[67] + 890 u[68] + 755 u[69] + 307 u[70]
   + 201 u[71] + 194 u[72] + 841 u[73] + 142 u[74] + 619 u[75] + 242 u[76]
   + 814 u[77] + 464 u[78] + 999 u[79] + 909 u[80] + 852 u[81] + 907 u[82]
   + 841 u[83] + 396 u[84] + 265 u[85] + 127 u[86] + 463 u[87] + 957 u[88]
   + 170 u[89] + 716 u[90] + 655 u[91] + 111 u[92] + 4 u[93] + 491 u[94]
   + 584 u[95] + 389 u[96] + 140 u[97] + 738 u[98] + 981 u[99] <= 999
 primal_lower4: 507 u[0] + 332 u[1] + 180 u[2] + 824 u[3] + 638 u[4]
   + 886 u[5] + 979 u[6] + 390 u[7] + 128 u[8] + 839 u[9] + 377 u[10]
   + 971 u[11] + 369 u[12] + 591 u[13] + 635 u[14] + 181 u[15] + 537 u[16]
   + 244 u[17] + 114 u[18] + 204 u[19] + 423 u[20] + 677 u[21] + 75 u[22]
   + 477 u[23] + 320 u[24] + 393 u[25] + 420 u[26] + 860 u[27] + 472 u[28]
   + 749 u[29] + 76 u[30] + 326 u[31] + 97 u[32] + 468 u[33] + 496 u[34]
   + 596 u[35] + 765 u[36] + 344 u[37] + 582 u[38] + 179 u[39] + 153 u[40]
   + 535 u[41] + 255 u[42] + 481 u[43] + 720 u[44] + 658 u[45] + 942 u[46]
   + 66 u[47] + 760 u[48] + 415 u[49] + 576 u[50] + 256 u[51] + 110 u[52]
   + 966 u[53] + 743 u[54] + 553 u[55] + 993 u[56] + 880 u[57] + 975 u[58]
   + 754 u[59] + 677 u[60] + 355 u[61] + 19 u[62] + 770 u[63] + 959 u[64]
   + 482 u[65] + 829 u[66] + 305 u[67] + 752 u[68] + 737 u[69] + 313 u[70]
   + 295 u[71] + 928 u[72] + 199 u[73] + 988 u[74] + 329 u[75] + 656 u[76]
   + 604 u[77] + 622 u[78] + 93 u[79] + 363 u[80] + 338 u[81] + 761 u[82]
   + 847 u[83] + 410 u[84] + 127 u[85] + 237 u[86] + 37 u[87] + 323 u[88]
   + 232 u[89] + 826 u[90] + 61 u[91] + 45 u[92] + 154 u[93] + 609 u[94]
   + 54 u[95] + 779 u[96] + 130 u[97] + 992 u[98] + 747 u[99] <= 993
 primal_lower5: 479 u[0] + 681 u[1] + 899 u[2] + 930 u[3] + 449 u[4]
   + 987 u[5] + 666 u[6] + 815 u[7] + 371 u[8] + 461 u[9] + 249 u[10]
   + 268 u[11] + 92 u[12] + 845 u[13] + 491 u[14] + 63 u[15] + 796 u[16]
   + 418 u[17] + 905 u[18] + 902 u[19] + 227 u[20] + 770 u[21] + 554 u[22]
   + 934 u[23] + 51 u[24] + 630 u[25] + 491 u[26] + 693 u[27] + 860 u[28]
   + 26 u[29] + 636 u[30] + 151 u[31] + 540 u[32] + 793 u[33] + 271 u[34]
   + 533 u[35] + 136 u[36] + 462 u[37] + 685 u[38] + 141 u[39] + 884 u[40]
   + 13 u[41] + 799 u[42] + 442 u[43] + 939 u[44] + 559 u[45] + 142 u[46]
   + 811 u[47] + 284 u[48] + 980 u[49] + 743 u[50] + 786 u[51] + 41 u[52]
   + 163 u[53] + 367 u[54] + 579 u[55] + 693 u[56] + 973 u[57] + 662 u[58]
   + 820 u[59] + 721 u[60] + 208 u[61] + 931 u[62] + 475 u[63] + 675 u[64]
   + 855 u[65] + 116 u[66] + 610 u[67] + 427 u[68] + 879 u[69] + 424 u[70]
   + 328 u[71] + 523 u[72] + 108 u[73] + 476 u[74] + 306 u[75] + 379 u[76]
   + 26 u[77] + 302 u[78] + 815 u[79] + 118 u[80] + 711 u[81] + 985 u[82]
   + 273 u[83] + 269 u[84] + 285 u[85] + 805 u[86] + 878 u[87] + 286 u[88]
   + 358 u[89] + 106 u[90] + 670 u[91] + 697 u[92] + 856 u[93] + 177 u[94]
   + 344 u[95] + 854 u[96] + 416 u[97] + 751 u[98] + 437 u[99] <= 987
 primal_lower6: 313 u[0] + 499 u[1] + 45 u[2] + 604 u[3] + 347 u[4]
   + 877 u[5] + 196 u[6] + 697 u[7] + 461 u[8] + 439 u[9] + 179 u[10]
   + 558 u[11] + 54 u[12] + 727 u[13] + 725 u[14] + 409 u[15] + 286 u[16]
   + 444 u[17] + 275 u[18] + 464 u[19] + 981 u[20] + 948 u[21] + 924 u[22]
   + 80 u[23] + 245 u[24] + 32 u[25] + 725 u[26] + 31 u[27] + 910 u[28]
   + 4 u[29] + 614 u[30] + 145 u[31] + 870 u[32] + 147 u[33] + 449 u[34]
   + 895 u[35] + 266 u[36] + 912 u[37] + 143 u[38] + 655 u[39] + 318 u[40]
   + 743 u[41] + 817 u[42] + 564 u[43] + 589 u[44] + 609 u[45] + 656 u[46]
   + 821 u[47] + 822 u[48] + 478 u[49] + 489 u[50] + 812 u[51] + 243 u[52]
   + 709 u[53] + 745 u[54] + 13 u[55] + 15 u[56] + 95 u[57] + 752 u[58]
   + 934 u[59] + 899 u[60] + 258 u[61] + 437 u[62] + 397 u[63] + 261 u[64]
   + 881 u[65] + 350 u[66] + 332 u[67] + 69 u[68] + 641 u[69] + 650 u[70]
   + 778 u[71] + 693 u[72] + 462 u[73] + 966 u[74] + 452 u[75] + 349 u[76]
   + 564 u[77] + 400 u[78] + 129 u[79] + 32 u[80] + 537 u[81] + 139 u[82]
   + 219 u[83] + 751 u[84] + 551 u[85] + 159 u[86] + 384 u[87] + 8 u[88]
   + 312 u[89] + 740 u[90] + 192 u[91] + 483 u[92] + 922 u[93] + 27 u[94]
   + 90 u[95] + 16 u[96] + 410 u[97] + 161 u[98] + 751 u[99] <= 981
 primal_lower7: 678 u[0] + 883 u[1] + 327 u[2] + 647 u[3] + 225 u[4]
   + 693 u[5] + 638 u[6] + 517 u[7] + 643 u[8] + 198 u[9] + 820 u[10]
   + 114 u[11] + 436 u[12] + 350 u[13] + 358 u[14] + 276 u[15] + 228 u[16]
   + 619 u[17] + 861 u[18] + 195 u[19] + 522 u[20] + 788 u[21] + 934 u[22]
   + 804 u[23] + 131 u[24] + 536 u[25] + 975 u[26] + 531 u[27] + 115 u[28]
   + 556 u[29] + 559 u[30] + 813 u[31] + 500 u[32] + 419 u[33] + 203 u[34]
   + 939 u[35] + 992 u[36] + 943 u[37] + 137 u[38] + 906 u[39] + 716 u[40]
   + 382 u[41] + 66 u[42] + 32 u[43] + 475 u[44] + 545 u[45] + 33 u[46]
   + 25 u[47] + 611 u[48] + 326 u[49] + 915 u[50] + 191 u[51] + 593 u[52]
   + 837 u[53] + 554 u[54] + 40 u[55] + 780 u[56] + 487 u[57] + 82 u[58]
   + 561 u[59] + 328 u[60] + 66 u[61] + 686 u[62] + 377 u[63] + 826 u[64]
   + 201 u[65] + 200 u[66] + 384 u[67] + 811 u[68] + 840 u[69] + 324 u[70]
   + 414 u[71] + 603 u[72] + 934 u[73] + 527 u[74] + 288 u[75] + 403 u[76]
   + 331 u[77] + 953 u[78] + 412 u[79] + 294 u[80] + 153 u[81] + 660 u[82]
   + 238 u[83] + 285 u[84] + 198 u[85] + 120 u[86] + 100 u[87] + 646 u[88]
   + 831 u[89] + 421 u[90] + 660 u[91] + 552 u[92] + 409 u[93] + 892 u[94]
   + 533 u[95] + 998 u[96] + 881 u[97] + 747 u[98] + 450 u[99] <= 998
 primal_lower8: 910 u[0] + 315 u[1] + 239 u[2] + 135 u[3] + u[4] + 405 u[5]
   + 718 u[6] + 725 u[7] + 467 u[8] + 782 u[9] + 436 u[10] + 274 u[11]
   + 844 u[12] + 518 u[13] + 470 u[14] + 108 u[15] + 788 u[16] + 195 u[17]
   + 797 u[18] + 491 u[19] + 2 u[20] + 916 u[21] + 190 u[22] + 980 u[23]
   + 915 u[24] + 920 u[25] + 503 u[26] + 811 u[27] + 507 u[28] + 12 u[29]
   + 831 u[30] + 533 u[31] + 764 u[32] + 507 u[33] + 995 u[34] + 811 u[35]
   + 280 u[36] + 487 u[37] + 769 u[38] + 138 u[39] + 68 u[40] + 406 u[41]
   + 626 u[42] + 104 u[43] + 395 u[44] + 961 u[45] + 505 u[46] + 81 u[47]
   + 395 u[48] + 110 u[49] + 51 u[50] + 887 u[51] + 473 u[52] + 285 u[53]
   + 226 u[54] + 176 u[55] + 620 u[56] + 743 u[57] + 74 u[58] + 529 u[59]
   + 584 u[60] + 538 u[61] + 654 u[62] + 601 u[63] + 18 u[64] + 761 u[65]
   + 488 u[66] + 176 u[67] + 131 u[68] + 872 u[69] + 892 u[70] + 446 u[71]
   + 275 u[72] + 494 u[73] + 663 u[74] + 488 u[75] + 11 u[76] + 747 u[77]
   + 889 u[78] + 932 u[79] + 918 u[80] + 417 u[81] + 676 u[82] + 766 u[83]
   + 973 u[84] + 6 u[85] + 192 u[86] + 924 u[87] + 406 u[88] + 351 u[89]
   + 141 u[90] + 396 u[91] + 208 u[92] + 673 u[93] + 252 u[94] + 461 u[95]
   + 518 u[96] + 649 u[97] + 811 u[98] + 842 u[99] <= 995
 primal_lower9: 81 u[0] + 339 u[1] + 917 u[2] + 492 u[3] + 203 u[4]
   + 677 u[5] + 660 u[6] + 353 u[7] + 437 u[8] + 863 u[9] + 491 u[10]
   + 678 u[11] + 278 u[12] + 535 u[13] + 101 u[14] + 497 u[15] + 94 u[16]
   + 284 u[17] + 179 u[18] + 712 u[19] + 973 u[20] + 796 u[21] + 372 u[22]
   + 872 u[23] + 509 u[24] + 240 u[25] + 909 u[26] + 983 u[27] + 214 u[28]
   + 468 u[29] + 830 u[30] + 353 u[31] + 526 u[32] + 795 u[33] + 849 u[34]
   + 71 u[35] + 562 u[36] + 936 u[37] + 319 u[38] + 839 u[39] + 454 u[40]
   + 823 u[41] + u[42] + 252 u[43] + 133 u[44] + 465 u[45] + 856 u[46]
   + 533 u[47] + 598 u[48] + 582 u[49] + 473 u[50] + 20 u[51] + 787 u[52]
   + 765 u[53] + 969 u[54] + 221 u[55] + 575 u[56] + 655 u[57] + 848 u[58]
   + 862 u[59] + 227 u[60] + 858 u[61] + 893 u[62] + 61 u[63] + 549 u[64]
   + u[65] + 142 u[66] + 820 u[67] + 957 u[68] + 585 u[69] + 706 u[70]
   + 466 u[71] + 373 u[72] + 430 u[73] + 382 u[74] + 84 u[75] + 973 u[76]
   + 716 u[77] + 320 u[78] + 937 u[79] + 376 u[80] + 401 u[81] + 707 u[82]
   + 307 u[83] + 959 u[84] + 271 u[85] + 863 u[86] + 664 u[87] + 712 u[88]
   + 144 u[89] + 404 u[90] + 168 u[91] + 43 u[92] + 594 u[93] + 371 u[94]
   + 66 u[95] + 936 u[96] + 266 u[97] + 569 u[98] + 167 u[99] <= 983
 interdiction[0]: x[0] + u[0] <= 1
 interdiction[1]: x[1] + u[1] <= 1
 interdiction[2]: x[2] + u[2] <= 1
 interdiction[3]: x[3] + u[3] <= 1
 interdiction[4]: x[4] + u[4] <= 1
 interdiction[5]: x[5] + u[5] <= 1
 interdiction[6]: x[6] + u[6] <= 1
 interdiction[7]: x[7] + u[7] <= 1
 interdiction[8]: x[8] + u[8] <= 1
 interdiction[9]: x[9] + u[9] <= 1
 interdiction[10]: x[10] + u[10] <= 1
 interdiction[11]: x[11] + u[11] <= 1
 interdiction[12]: x[12] + u[12] <= 1
 interdiction[13]: x[13] + u[13] <= 1
 interdiction[14]: x[14] + u[14] <= 1
 interdiction[15]: x[15] + u[15] <= 1
 interdiction[16]: x[16] + u[16] <= 1
 interdiction[17]: x[17] + u[17] <= 1
 interdiction[18]: x[18] + u[18] <= 1
 interdiction[19]: x[19] + u[19] <= 1
 interdiction[20]: x[20] + u[20] <= 1
 interdiction[21]: x[21] + u[21] <= 1
 interdiction[22]: x[22] + u[22] <= 1
 interdiction[23]: x[23] + u[23] <= 1
 interdiction[24]: x[24] + u[24] <= 1
 interdiction[25]: x[25] + u[25] <= 1
 interdiction[26]: x[26] + u[26] <= 1
 interdiction[27]: x[27] + u[27] <= 1
 interdiction[28]: x[28] + u[28] <= 1
 interdiction[29]: x[29] + u[29] <= 1
 interdiction[30]: x[30] + u[30] <= 1
 interdiction[31]: x[31] + u[31] <= 1
 interdiction[32]: x[32] + u[32] <= 1
 interdiction[33]: x[33] + u[33] <= 1
 interdiction[34]: x[34] + u[34] <= 1
 interdiction[35]: x[35] + u[35] <= 1
 interdiction[36]: x[36] + u[36] <= 1
 interdiction[37]: x[37] + u[37] <= 1
 interdiction[38]: x[38] + u[38] <= 1
 interdiction[39]: x[39] + u[39] <= 1
 interdiction[40]: x[40] + u[40] <= 1
 interdiction[41]: x[41] + u[41] <= 1
 interdiction[42]: x[42] + u[42] <= 1
 interdiction[43]: x[43] + u[43] <= 1
 interdiction[44]: x[44] + u[44] <= 1
 interdiction[45]: x[45] + u[45] <= 1
 interdiction[46]: x[46] + u[46] <= 1
 interdiction[47]: x[47] + u[47] <= 1
 interdiction[48]: x[48] + u[48] <= 1
 interdiction[49]: x[49] + u[49] <= 1
 interdiction[50]: x[50] + u[50] <= 1
 interdiction[51]: x[51] + u[51] <= 1
 interdiction[52]: x[52] + u[52] <= 1
 interdiction[53]: x[53] + u[53] <= 1
 interdiction[54]: x[54] + u[54] <= 1
 interdiction[55]: x[55] + u[55] <= 1
 interdiction[56]: x[56] + u[56] <= 1
 interdiction[57]: x[57] + u[57] <= 1
 interdiction[58]: x[58] + u[58] <= 1
 interdiction[59]: x[59] + u[59] <= 1
 interdiction[60]: x[60] + u[60] <= 1
 interdiction[61]: x[61] + u[61] <= 1
 interdiction[62]: x[62] + u[62] <= 1
 interdiction[63]: x[63] + u[63] <= 1
 interdiction[64]: x[64] + u[64] <= 1
 interdiction[65]: x[65] + u[65] <= 1
 interdiction[66]: x[66] + u[66] <= 1
 interdiction[67]: x[67] + u[67] <= 1
 interdiction[68]: x[68] + u[68] <= 1
 interdiction[69]: x[69] + u[69] <= 1
 interdiction[70]: x[70] + u[70] <= 1
 interdiction[71]: x[71] + u[71] <= 1
 interdiction[72]: x[72] + u[72] <= 1
 interdiction[73]: x[73] + u[73] <= 1
 interdiction[74]: x[74] + u[74] <= 1
 interdiction[75]: x[75] + u[75] <= 1
 interdiction[76]: x[76] + u[76] <= 1
 interdiction[77]: x[77] + u[77] <= 1
 interdiction[78]: x[78] + u[78] <= 1
 interdiction[79]: x[79] + u[79] <= 1
 interdiction[80]: x[80] + u[80] <= 1
 interdiction[81]: x[81] + u[81] <= 1
 interdiction[82]: x[82] + u[82] <= 1
 interdiction[83]: x[83] + u[83] <= 1
 interdiction[84]: x[84] + u[84] <= 1
 interdiction[85]: x[85] + u[85] <= 1
 interdiction[86]: x[86] + u[86] <= 1
 interdiction[87]: x[87] + u[87] <= 1
 interdiction[88]: x[88] + u[88] <= 1
 interdiction[89]: x[89] + u[89] <= 1
 interdiction[90]: x[90] + u[90] <= 1
 interdiction[91]: x[91] + u[91] <= 1
 interdiction[92]: x[92] + u[92] <= 1
 interdiction[93]: x[93] + u[93] <= 1
 interdiction[94]: x[94] + u[94] <= 1
 interdiction[95]: x[95] + u[95] <= 1
 interdiction[96]: x[96] + u[96] <= 1
 interdiction[97]: x[97] + u[97] <= 1
 interdiction[98]: x[98] + u[98] <= 1
 interdiction[99]: x[99] + u[99] <= 1
 mccormick1[0]: - u[0] + z[0] <= 0
 mccormick1[1]: - u[1] + z[1] <= 0
 mccormick1[2]: - u[2] + z[2] <= 0
 mccormick1[3]: - u[3] + z[3] <= 0
 mccormick1[4]: - u[4] + z[4] <= 0
 mccormick1[5]: - u[5] + z[5] <= 0
 mccormick1[6]: - u[6] + z[6] <= 0
 mccormick1[7]: - u[7] + z[7] <= 0
 mccormick1[8]: - u[8] + z[8] <= 0
 mccormick1[9]: - u[9] + z[9] <= 0
 mccormick1[10]: - u[10] + z[10] <= 0
 mccormick1[11]: - u[11] + z[11] <= 0
 mccormick1[12]: - u[12] + z[12] <= 0
 mccormick1[13]: - u[13] + z[13] <= 0
 mccormick1[14]: - u[14] + z[14] <= 0
 mccormick1[15]: - u[15] + z[15] <= 0
 mccormick1[16]: - u[16] + z[16] <= 0
 mccormick1[17]: - u[17] + z[17] <= 0
 mccormick1[18]: - u[18] + z[18] <= 0
 mccormick1[19]: - u[19] + z[19] <= 0
 mccormick1[20]: - u[20] + z[20] <= 0
 mccormick1[21]: - u[21] + z[21] <= 0
 mccormick1[22]: - u[22] + z[22] <= 0
 mccormick1[23]: - u[23] + z[23] <= 0
 mccormick1[24]: - u[24] + z[24] <= 0
 mccormick1[25]: - u[25] + z[25] <= 0
 mccormick1[26]: - u[26] + z[26] <= 0
 mccormick1[27]: - u[27] + z[27] <= 0
 mccormick1[28]: - u[28] + z[28] <= 0
 mccormick1[29]: - u[29] + z[29] <= 0
 mccormick1[30]: - u[30] + z[30] <= 0
 mccormick1[31]: - u[31] + z[31] <= 0
 mccormick1[32]: - u[32] + z[32] <= 0
 mccormick1[33]: - u[33] + z[33] <= 0
 mccormick1[34]: - u[34] + z[34] <= 0
 mccormick1[35]: - u[35] + z[35] <= 0
 mccormick1[36]: - u[36] + z[36] <= 0
 mccormick1[37]: - u[37] + z[37] <= 0
 mccormick1[38]: - u[38] + z[38] <= 0
 mccormick1[39]: - u[39] + z[39] <= 0
 mccormick1[40]: - u[40] + z[40] <= 0
 mccormick1[41]: - u[41] + z[41] <= 0
 mccormick1[42]: - u[42] + z[42] <= 0
 mccormick1[43]: - u[43] + z[43] <= 0
 mccormick1[44]: - u[44] + z[44] <= 0
 mccormick1[45]: - u[45] + z[45] <= 0
 mccormick1[46]: - u[46] + z[46] <= 0
 mccormick1[47]: - u[47] + z[47] <= 0
 mccormick1[48]: - u[48] + z[48] <= 0
 mccormick1[49]: - u[49] + z[49] <= 0
 mccormick1[50]: - u[50] + z[50] <= 0
 mccormick1[51]: - u[51] + z[51] <= 0
 mccormick1[52]: - u[52] + z[52] <= 0
 mccormick1[53]: - u[53] + z[53] <= 0
 mccormick1[54]: - u[54] + z[54] <= 0
 mccormick1[55]: - u[55] + z[55] <= 0
 mccormick1[56]: - u[56] + z[56] <= 0
 mccormick1[57]: - u[57] + z[57] <= 0
 mccormick1[58]: - u[58] + z[58] <= 0
 mccormick1[59]: - u[59] + z[59] <= 0
 mccormick1[60]: - u[60] + z[60] <= 0
 mccormick1[61]: - u[61] + z[61] <= 0
 mccormick1[62]: - u[62] + z[62] <= 0
 mccormick1[63]: - u[63] + z[63] <= 0
 mccormick1[64]: - u[64] + z[64] <= 0
 mccormick1[65]: - u[65] + z[65] <= 0
 mccormick1[66]: - u[66] + z[66] <= 0
 mccormick1[67]: - u[67] + z[67] <= 0
 mccormick1[68]: - u[68] + z[68] <= 0
 mccormick1[69]: - u[69] + z[69] <= 0
 mccormick1[70]: - u[70] + z[70] <= 0
 mccormick1[71]: - u[71] + z[71] <= 0
 mccormick1[72]: - u[72] + z[72] <= 0
 mccormick1[73]: - u[73] + z[73] <= 0
 mccormick1[74]: - u[74] + z[74] <= 0
 mccormick1[75]: - u[75] + z[75] <= 0
 mccormick1[76]: - u[76] + z[76] <= 0
 mccormick1[77]: - u[77] + z[77] <= 0
 mccormick1[78]: - u[78] + z[78] <= 0
 mccormick1[79]: - u[79] + z[79] <= 0
 mccormick1[80]: - u[80] + z[80] <= 0
 mccormick1[81]: - u[81] + z[81] <= 0
 mccormick1[82]: - u[82] + z[82] <= 0
 mccormick1[83]: - u[83] + z[83] <= 0
 mccormick1[84]: - u[84] + z[84] <= 0
 mccormick1[85]: - u[85] + z[85] <= 0
 mccormick1[86]: - u[86] + z[86] <= 0
 mccormick1[87]: - u[87] + z[87] <= 0
 mccormick1[88]: - u[88] + z[88] <= 0
 mccormick1[89]: - u[89] + z[89] <= 0
 mccormick1[90]: - u[90] + z[90] <= 0
 mccormick1[91]: - u[91] + z[91] <= 0
 mccormick1[92]: - u[92] + z[92] <= 0
 mccormick1[93]: - u[93] + z[93] <= 0
 mccormick1[94]: - u[94] + z[94] <= 0
 mccormick1[95]: - u[95] + z[95] <= 0
 mccormick1[96]: - u[96] + z[96] <= 0
 mccormick1[97]: - u[97] + z[97] <= 0
 mccormick1[98]: - u[98] + z[98] <= 0
 mccormick1[99]: - u[99] + z[99] <= 0
 mccormick2[0]: - y[0] + z[0] <= 0
 mccormick2[1]: - y[1] + z[1] <= 0
 mccormick2[2]: - y[2] + z[2] <= 0
 mccormick2[3]: - y[3] + z[3] <= 0
 mccormick2[4]: - y[4] + z[4] <= 0
 mccormick2[5]: - y[5] + z[5] <= 0
 mccormick2[6]: - y[6] + z[6] <= 0
 mccormick2[7]: - y[7] + z[7] <= 0
 mccormick2[8]: - y[8] + z[8] <= 0
 mccormick2[9]: - y[9] + z[9] <= 0
 mccormick2[10]: - y[10] + z[10] <= 0
 mccormick2[11]: - y[11] + z[11] <= 0
 mccormick2[12]: - y[12] + z[12] <= 0
 mccormick2[13]: - y[13] + z[13] <= 0
 mccormick2[14]: - y[14] + z[14] <= 0
 mccormick2[15]: - y[15] + z[15] <= 0
 mccormick2[16]: - y[16] + z[16] <= 0
 mccormick2[17]: - y[17] + z[17] <= 0
 mccormick2[18]: - y[18] + z[18] <= 0
 mccormick2[19]: - y[19] + z[19] <= 0
 mccormick2[20]: - y[20] + z[20] <= 0
 mccormick2[21]: - y[21] + z[21] <= 0
 mccormick2[22]: - y[22] + z[22] <= 0
 mccormick2[23]: - y[23] + z[23] <= 0
 mccormick2[24]: - y[24] + z[24] <= 0
 mccormick2[25]: - y[25] + z[25] <= 0
 mccormick2[26]: - y[26] + z[26] <= 0
 mccormick2[27]: - y[27] + z[27] <= 0
 mccormick2[28]: - y[28] + z[28] <= 0
 mccormick2[29]: - y[29] + z[29] <= 0
 mccormick2[30]: - y[30] + z[30] <= 0
 mccormick2[31]: - y[31] + z[31] <= 0
 mccormick2[32]: - y[32] + z[32] <= 0
 mccormick2[33]: - y[33] + z[33] <= 0
 mccormick2[34]: - y[34] + z[34] <= 0
 mccormick2[35]: - y[35] + z[35] <= 0
 mccormick2[36]: - y[36] + z[36] <= 0
 mccormick2[37]: - y[37] + z[37] <= 0
 mccormick2[38]: - y[38] + z[38] <= 0
 mccormick2[39]: - y[39] + z[39] <= 0
 mccormick2[40]: - y[40] + z[40] <= 0
 mccormick2[41]: - y[41] + z[41] <= 0
 mccormick2[42]: - y[42] + z[42] <= 0
 mccormick2[43]: - y[43] + z[43] <= 0
 mccormick2[44]: - y[44] + z[44] <= 0
 mccormick2[45]: - y[45] + z[45] <= 0
 mccormick2[46]: - y[46] + z[46] <= 0
 mccormick2[47]: - y[47] + z[47] <= 0
 mccormick2[48]: - y[48] + z[48] <= 0
 mccormick2[49]: - y[49] + z[49] <= 0
 mccormick2[50]: - y[50] + z[50] <= 0
 mccormick2[51]: - y[51] + z[51] <= 0
 mccormick2[52]: - y[52] + z[52] <= 0
 mccormick2[53]: - y[53] + z[53] <= 0
 mccormick2[54]: - y[54] + z[54] <= 0
 mccormick2[55]: - y[55] + z[55] <= 0
 mccormick2[56]: - y[56] + z[56] <= 0
 mccormick2[57]: - y[57] + z[57] <= 0
 mccormick2[58]: - y[58] + z[58] <= 0
 mccormick2[59]: - y[59] + z[59] <= 0
 mccormick2[60]: - y[60] + z[60] <= 0
 mccormick2[61]: - y[61] + z[61] <= 0
 mccormick2[62]: - y[62] + z[62] <= 0
 mccormick2[63]: - y[63] + z[63] <= 0
 mccormick2[64]: - y[64] + z[64] <= 0
 mccormick2[65]: - y[65] + z[65] <= 0
 mccormick2[66]: - y[66] + z[66] <= 0
 mccormick2[67]: - y[67] + z[67] <= 0
 mccormick2[68]: - y[68] + z[68] <= 0
 mccormick2[69]: - y[69] + z[69] <= 0
 mccormick2[70]: - y[70] + z[70] <= 0
 mccormick2[71]: - y[71] + z[71] <= 0
 mccormick2[72]: - y[72] + z[72] <= 0
 mccormick2[73]: - y[73] + z[73] <= 0
 mccormick2[74]: - y[74] + z[74] <= 0
 mccormick2[75]: - y[75] + z[75] <= 0
 mccormick2[76]: - y[76] + z[76] <= 0
 mccormick2[77]: - y[77] + z[77] <= 0
 mccormick2[78]: - y[78] + z[78] <= 0
 mccormick2[79]: - y[79] + z[79] <= 0
 mccormick2[80]: - y[80] + z[80] <= 0
 mccormick2[81]: - y[81] + z[81] <= 0
 mccormick2[82]: - y[82] + z[82] <= 0
 mccormick2[83]: - y[83] + z[83] <= 0
 mccormick2[84]: - y[84] + z[84] <= 0
 mccormick2[85]: - y[85] + z[85] <= 0
 mccormick2[86]: - y[86] + z[86] <= 0
 mccormick2[87]: - y[87] + z[87] <= 0
 mccormick2[88]: - y[88] + z[88] <= 0
 mccormick2[89]: - y[89] + z[89] <= 0
 mccormick2[90]: - y[90] + z[90] <= 0
 mccormick2[91]: - y[91] + z[91] <= 0
 mccormick2[92]: - y[92] + z[92] <= 0
 mccormick2[93]: - y[93] + z[93] <= 0
 mccormick2[94]: - y[94] + z[94] <= 0
 mccormick2[95]: - y[95] + z[95] <= 0
 mccormick2[96]: - y[96] + z[96] <= 0
 mccormick2[97]: - y[97] + z[97] <= 0
 mccormick2[98]: - y[98] + z[98] <= 0
 mccormick2[99]: - y[99] + z[99] <= 0
 mccormick3[0]: y[0] + u[0] - z[0] <= 1
 mccormick3[1]: y[1] + u[1] - z[1] <= 1
 mccormick3[2]: y[2] + u[2] - z[2] <= 1
 mccormick3[3]: y[3] + u[3] - z[3] <= 1
 mccormick3[4]: y[4] + u[4] - z[4] <= 1
 mccormick3[5]: y[5] + u[5] - z[5] <= 1
 mccormick3[6]: y[6] + u[6] - z[6] <= 1
 mccormick3[7]: y[7] + u[7] - z[7] <= 1
 mccormick3[8]: y[8] + u[8] - z[8] <= 1
 mccormick3[9]: y[9] + u[9] - z[9] <= 1
 mccormick3[10]: y[10] + u[10] - z[10] <= 1
 mccormick3[11]: y[11] + u[11] - z[11] <= 1
 mccormick3[12]: y[12] + u[12] - z[12] <= 1
 mccormick3[13]: y[13] + u[13] - z[13] <= 1
 mccormick3[14]: y[14] + u[14] - z[14] <= 1
 mccormick3[15]: y[15] + u[15] - z[15] <= 1
 mccormick3[16]: y[16] + u[16] - z[16] <= 1
 mccormick3[17]: y[17] + u[17] - z[17] <= 1
 mccormick3[18]: y[18] + u[18] - z[18] <= 1
 mccormick3[19]: y[19] + u[19] - z[19] <= 1
 mccormick3[20]: y[20] + u[20] - z[20] <= 1
 mccormick3[21]: y[21] + u[21] - z[21] <= 1
 mccormick3[22]: y[22] + u[22] - z[22] <= 1
 mccormick3[23]: y[23] + u[23] - z[23] <= 1
 mccormick3[24]: y[24] + u[24] - z[24] <= 1
 mccormick3[25]: y[25] + u[25] - z[25] <= 1
 mccormick3[26]: y[26] + u[26] - z[26] <= 1
 mccormick3[27]: y[27] + u[27] - z[27] <= 1
 mccormick3[28]: y[28] + u[28] - z[28] <= 1
 mccormick3[29]: y[29] + u[29] - z[29] <= 1
 mccormick3[30]: y[30] + u[30] - z[30] <= 1
 mccormick3[31]: y[31] + u[31] - z[31] <= 1
 mccormick3[32]: y[32] + u[32] - z[32] <= 1
 mccormick3[33]: y[33] + u[33] - z[33] <= 1
 mccormick3[34]: y[34] + u[34] - z[34] <= 1
 mccormick3[35]: y[35] + u[35] - z[35] <= 1
 mccormick3[36]: y[36] + u[36] - z[36] <= 1
 mccormick3[37]: y[37] + u[37] - z[37] <= 1
 mccormick3[38]: y[38] + u[38] - z[38] <= 1
 mccormick3[39]: y[39] + u[39] - z[39] <= 1
 mccormick3[40]: y[40] + u[40] - z[40] <= 1
 mccormick3[41]: y[41] + u[41] - z[41] <= 1
 mccormick3[42]: y[42] + u[42] - z[42] <= 1
 mccormick3[43]: y[43] + u[43] - z[43] <= 1
 mccormick3[44]: y[44] + u[44] - z[44] <= 1
 mccormick3[45]: y[45] + u[45] - z[45] <= 1
 mccormick3[46]: y[46] + u[46] - z[46] <= 1
 mccormick3[47]: y[47] + u[47] - z[47] <= 1
 mccormick3[48]: y[48] + u[48] - z[48] <= 1
 mccormick3[49]: y[49] + u[49] - z[49] <= 1
 mccormick3[50]: y[50] + u[50] - z[50] <= 1
 mccormick3[51]: y[51] + u[51] - z[51] <= 1
 mccormick3[52]: y[52] + u[52] - z[52] <= 1
 mccormick3[53]: y[53] + u[53] - z[53] <= 1
 mccormick3[54]: y[54] + u[54] - z[54] <= 1
 mccormick3[55]: y[55] + u[55] - z[55] <= 1
 mccormick3[56]: y[56] + u[56] - z[56] <= 1
 mccormick3[57]: y[57] + u[57] - z[57] <= 1
 mccormick3[58]: y[58] + u[58] - z[58] <= 1
 mccormick3[59]: y[59] + u[59] - z[59] <= 1
 mccormick3[60]: y[60] + u[60] - z[60] <= 1
 mccormick3[61]: y[61] + u[61] - z[61] <= 1
 mccormick3[62]: y[62] + u[62] - z[62] <= 1
 mccormick3[63]: y[63] + u[63] - z[63] <= 1
 mccormick3[64]: y[64] + u[64] - z[64] <= 1
 mccormick3[65]: y[65] + u[65] - z[65] <= 1
 mccormick3[66]: y[66] + u[66] - z[66] <= 1
 mccormick3[67]: y[67] + u[67] - z[67] <= 1
 mccormick3[68]: y[68] + u[68] - z[68] <= 1
 mccormick3[69]: y[69] + u[69] - z[69] <= 1
 mccormick3[70]: y[70] + u[70] - z[70] <= 1
 mccormick3[71]: y[71] + u[71] - z[71] <= 1
 mccormick3[72]: y[72] + u[72] - z[72] <= 1
 mccormick3[73]: y[73] + u[73] - z[73] <= 1
 mccormick3[74]: y[74] + u[74] - z[74] <= 1
 mccormick3[75]: y[75] + u[75] - z[75] <= 1
 mccormick3[76]: y[76] + u[76] - z[76] <= 1
 mccormick3[77]: y[77] + u[77] - z[77] <= 1
 mccormick3[78]: y[78] + u[78] - z[78] <= 1
 mccormick3[79]: y[79] + u[79] - z[79] <= 1
 mccormick3[80]: y[80] + u[80] - z[80] <= 1
 mccormick3[81]: y[81] + u[81] - z[81] <= 1
 mccormick3[82]: y[82] + u[82] - z[82] <= 1
 mccormick3[83]: y[83] + u[83] - z[83] <= 1
 mccormick3[84]: y[84] + u[84] - z[84] <= 1
 mccormick3[85]: y[85] + u[85] - z[85] <= 1
 mccormick3[86]: y[86] + u[86] - z[86] <= 1
 mccormick3[87]: y[87] + u[87] - z[87] <= 1
 mccormick3[88]: y[88] + u[88] - z[88] <= 1
 mccormick3[89]: y[89] + u[89] - z[89] <= 1
 mccormick3[90]: y[90] + u[90] - z[90] <= 1
 mccormick3[91]: y[91] + u[91] - z[91] <= 1
 mccormick3[92]: y[92] + u[92] - z[92] <= 1
 mccormick3[93]: y[93] + u[93] - z[93] <= 1
 mccormick3[94]: y[94] + u[94] - z[94] <= 1
 mccormick3[95]: y[95] + u[95] - z[95] <= 1
 mccormick3[96]: y[96] + u[96] - z[96] <= 1
 mccormick3[97]: y[97] + u[97] - z[97] <= 1
 mccormick3[98]: y[98] + u[98] - z[98] <= 1
 mccormick3[99]: y[99] + u[99] - z[99] <= 1
Bounds
Binaries
 x[0] x[1] x[2] x[3] x[4] x[5] x[6] x[7] x[8] x[9] x[10] x[11] x[12] x[13]
 x[14] x[15] x[16] x[17] x[18] x[19] x[20] x[21] x[22] x[23] x[24] x[25]
 x[26] x[27] x[28] x[29] x[30] x[31] x[32] x[33] x[34] x[35] x[36] x[37]
 x[38] x[39] x[40] x[41] x[42] x[43] x[44] x[45] x[46] x[47] x[48] x[49]
 x[50] x[51] x[52] x[53] x[54] x[55] x[56] x[57] x[58] x[59] x[60] x[61]
 x[62] x[63] x[64] x[65] x[66] x[67] x[68] x[69] x[70] x[71] x[72] x[73]
 x[74] x[75] x[76] x[77] x[78] x[79] x[80] x[81] x[82] x[83] x[84] x[85]
 x[86] x[87] x[88] x[89] x[90] x[91] x[92] x[93] x[94] x[95] x[96] x[97]
 x[98] x[99] y[0] y[1] y[2] y[3] y[4] y[5] y[6] y[7] y[8] y[9] y[10] y[11]
 y[12] y[13] y[14] y[15] y[16] y[17] y[18] y[19] y[20] y[21] y[22] y[23]
 y[24] y[25] y[26] y[27] y[28] y[29] y[30] y[31] y[32] y[33] y[34] y[35]
 y[36] y[37] y[38] y[39] y[40] y[41] y[42] y[43] y[44] y[45] y[46] y[47]
 y[48] y[49] y[50] y[51] y[52] y[53] y[54] y[55] y[56] y[57] y[58] y[59]
 y[60] y[61] y[62] y[63] y[64] y[65] y[66] y[67] y[68] y[69] y[70] y[71]
 y[72] y[73] y[74] y[75] y[76] y[77] y[78] y[79] y[80] y[81] y[82] y[83]
 y[84] y[85] y[86] y[87] y[88] y[89] y[90] y[91] y[92] y[93] y[94] y[95]
 y[96] y[97] y[98] y[99] u[0] u[1] u[2] u[3] u[4] u[5] u[6] u[7] u[8] u[9]
 u[10] u[11] u[12] u[13] u[14] u[15] u[16] u[17] u[18] u[19] u[20] u[21]
 u[22] u[23] u[24] u[25] u[26] u[27] u[28] u[29] u[30] u[31] u[32] u[33]
 u[34] u[35] u[36] u[37] u[38] u[39] u[40] u[41] u[42] u[43] u[44] u[45]
 u[46] u[47] u[48] u[49] u[50] u[51] u[52] u[53] u[54] u[55] u[56] u[57]
 u[58] u[59] u[60] u[61] u[62] u[63] u[64] u[65] u[66] u[67] u[68] u[69]
 u[70] u[71] u[72] u[73] u[74] u[75] u[76] u[77] u[78] u[79] u[80] u[81]
 u[82] u[83] u[84] u[85] u[86] u[87] u[88] u[89] u[90] u[91] u[92] u[93]
 u[94] u[95] u[96] u[97] u[98] u[99] z[0] z[1] z[2] z[3] z[4] z[5] z[6]
 z[7] z[8] z[9] z[10] z[11] z[12] z[13] z[14] z[15] z[16] z[17] z[18] z[19]
 z[20] z[21] z[22] z[23] z[24] z[25] z[26] z[27] z[28] z[29] z[30] z[31]
 z[32] z[33] z[34] z[35] z[36] z[37] z[38] z[39] z[40] z[41] z[42] z[43]
 z[44] z[45] z[46] z[47] z[48] z[49] z[50] z[51] z[52] z[53] z[54] z[55]
 z[56] z[57] z[58] z[59] z[60] z[61] z[62] z[63] z[64] z[65] z[66] z[67]
 z[68] z[69] z[70] z[71] z[72] z[73] z[74] z[75] z[76] z[77] z[78] z[79]
 z[80] z[81] z[82] z[83] z[84] z[85] z[86] z[87] z[88] z[89] z[90] z[91]
 z[92] z[93] z[94] z[95] z[96] z[97] z[98] z[99]
End
